NAME : square3d
COMMENT : drilling problem (Ludwig)
TYPE : TSP
DIMENSION: 20
EDGE_WEIGHT_TYPE : EUC_3D
NODE_COORD_SECTION
  1 0 0 0
  2 0 1 0
  3 0 2 0
  4 0 3 0
  5 0 4 0
  6 0 5 0
  7 0 5 1
  8 0 5 2
  9 0 5 3
 10 0 5 4
  11 0 5 5
  12 0 4 5
  13 0 3 5
  14 0 2 5
  15 0 1 5
  16 0 0 5
  17 0 0 4
  18 0 0 3
  19 0 0 2
 20 0 0 1

EOF
